FLOW,10,5,1
1,73,0,65,3,100,2,42,4,53
1,59,0,56,4,3,2,94,3,36
1,52,0,88,4,43,3,87,2,36
0,99,1,22,4,56,2,27,3,73
1,82,0,27,3,12,2,50,4,91
0,71,1,14,4,31,2,20,3,100
1,87,0,90,2,67,4,96,3,18
1,50,0,48,2,99,3,24,4,73
1,48,0,36,4,36,3,28,2,59
1,13,0,92,3,21,4,27,2,86
